NAME : LPS-n10-m359
COMMENT : (Lartu-Peter-Santi Plot, instance 3159 out of 39200. 10 customers.)
TYPE : CVRP
DIMENSION : 10
EDGE_WEIGHT_TYPE : EUC_2D
CAPACITY : 80
NODE_COORD_SECTION
 1 19 5
 2 77 15
 3 35 39
 4 2 6
 5 84 49
 6 30 81
 7 76 56
 8 61 19
 9 1 59
 10 63 4
DEMAND_SECTION
1 0
2 20
3 16
4 54
5 76
6 75
7 44
8 62
9 48
10 53
DEPOT_SECTION
 1
 -1
EOF
